Version identifier: 20.1.0.0 | 2020-11-10 | 9bedb6d68
Tried aggregator 2 times.
MIP Presolve eliminated 2543 rows and 1333 columns.
MIP Presolve modified 6314 coefficients.
Aggregator did 257 substitutions.
Reduced MIP has 3889 rows, 3105 columns, and 12844 nonzeros.
Reduced MIP has 681 binaries, 2424 generals, 0 SOSs, and 0 indicators.
Presolve time = 0.03 sec. (14.93 ticks)
Probing fixed 80 vars, tightened 619 bounds.
Probing time = 0.01 sec. (1.62 ticks)
Cover probing fixed 0 vars, tightened 12 bounds.
Tried aggregator 2 times.
Detecting symmetries...
MIP Presolve eliminated 1646 rows and 92 columns.
MIP Presolve modified 303 coefficients.
Aggregator did 8 substitutions.
Reduced MIP has 2235 rows, 3005 columns, and 7476 nonzeros.
Reduced MIP has 801 binaries, 2204 generals, 0 SOSs, and 0 indicators.
Presolve time = 0.02 sec. (10.71 ticks)
Probing time = 0.00 sec. (0.73 ticks)
Clique table members: 245.
MIP emphasis: balance optimality and feasibility.
MIP search method: dynamic search.
Parallel mode: deterministic, using up to 24 threads.
Root relaxation solution time = 0.07 sec. (10.67 ticks)

        Nodes                                         Cuts/
   Node  Left     Objective  IInf  Best Integer    Best Bound    ItCnt     Gap

*     0+    0                           90.0000        0.0000           100.00%
      0     0        0.0000   105       90.0000        0.0000      792  100.00%
*     0+    0                           88.0000        0.0000           100.00%
      0     0        0.0000    84       88.0000     Cuts: 339      995  100.00%
      0     0        0.1112   744       88.0000     Cuts: 188     1857   99.87%
      0     0        1.0000   257       88.0000     Cuts: 100     1998   98.86%
*     0+    0                           46.0000        1.0000            97.83%
      0     0        1.0000   152       46.0000      Cuts: 93     2117   76.09%
      0     0        1.0000   248       46.0000      Cuts: 55     2175   76.09%
      0     0        1.0000   327       46.0000      Cuts: 17     2268   76.09%
*     0+    0                           36.0000       11.0000            69.44%
      0     2        1.0000   327       36.0000       13.0000     2268   63.89%
Elapsed time = 1.81 sec. (446.81 ticks, tree = 0.02 MB, solutions = 4)
*    18+    8                           35.0000       13.0000            62.86%
*   117+   21                           34.0000       13.0000            61.76%
*   462+  142                           28.0000       13.0000            53.57%
*   881+  121                           26.0000       13.0000            50.00%
*  1239+   30                           25.0000       13.0000            48.00%
   1565    55       24.0000    45       25.0000       13.0000    50907   48.00%
*  2443   116      integral     0       24.0000       13.0000    64372   45.83%
*  4097   350      integral     0       23.0000       13.0000    99039   43.48%
   4792   162       22.0000    66       23.0000       13.0000   114988   43.48%
*  5661+  190                           22.0000       13.0000            40.91%

Cover cuts applied:  47
Implied bound cuts applied:  349
Flow cuts applied:  14
Mixed integer rounding cuts applied:  32
Zero-half cuts applied:  169
Lift and project cuts applied:  13
Gomory fractional cuts applied:  9

Root node processing (before b&c):
  Real time             =    1.77 sec. (446.60 ticks)
Parallel b&c, 24 threads:
  Real time             =    2.40 sec. (550.54 ticks)
  Sync time (average)   =    1.14 sec.
  Wait time (average)   =    0.00 sec.
                          ------------
Total (root+branch&cut) =    4.17 sec. (997.14 ticks)

Solution status = Optimal
Solution LB = 22
Solution UB = 22
Runtime = 4.18596 seconds
	Command being timed: "/home/min/git_repos/CS598MEBProject/CNT-ILP/build/cnt -s 2 ./output/k8_n40/simC_c1_k8_n40_u3_s1_del02.input-left.cnp"
	User time (seconds): 60.57
	System time (seconds): 0.48
	Percent of CPU this job got: 1437%
	Elapsed (wall clock) time (h:mm:ss or m:ss): 0:04.24
	Average shared text size (kbytes): 0
	Average unshared data size (kbytes): 0
	Average stack size (kbytes): 0
	Average total size (kbytes): 0
	Maximum resident set size (kbytes): 238104
	Average resident set size (kbytes): 0
	Major (requiring I/O) page faults: 0
	Minor (reclaiming a frame) page faults: 99429
	Voluntary context switches: 11504
	Involuntary context switches: 8274
	Swaps: 0
	File system inputs: 0
	File system outputs: 16
	Socket messages sent: 0
	Socket messages received: 0
	Signals delivered: 0
	Page size (bytes): 4096
	Exit status: 0
